c t pmc
c file mc2022_track3_021.cnf
p cnf 117 328
c p show 5 6 8 10 12 14 15 16 21 23 26 28 29 30 33 41 42 43 44 45 46 52 53 54 56 59 60 66 68 70 72 73 74 77 84 87 88 89 94 95 99 101 103 106 108 113 116 117 0
1 0
10 11 0
19 20 21 0
28 29 30 31 0
37 38 39 40 41 0
46 47 48 49 50 51 0
55 56 57 58 59 60 61 0
64 65 66 67 68 69 70 71 0
73 74 75 76 77 78 79 80 81 0
82 83 84 85 86 87 88 89 90 0
91 92 93 94 95 96 97 98 99 0
100 101 102 103 104 105 106 107 108 0
109 110 111 112 113 114 115 116 117 0
-46 -82 0
-47 -83 0
-48 -84 0
-49 -85 0
-50 -86 0
-51 -87 0
-52 -88 0
-53 -89 0
-54 -90 0
-55 -82 0
-56 -83 0
-57 -84 0
-58 -85 0
-59 -86 0
-60 -87 0
-61 -88 0
-62 -89 0
-63 -90 0
-64 -109 0
-65 -110 0
-66 -111 0
-67 -112 0
-68 -113 0
-69 -114 0
-70 -115 0
-71 -116 0
-72 -117 0
-28 -100 0
-29 -101 0
-30 -102 0
-31 -103 0
-32 -104 0
-33 -105 0
-34 -106 0
-35 -107 0
-36 -108 0
-37 -109 0
-38 -110 0
-39 -111 0
-40 -112 0
-41 -113 0
-42 -114 0
-43 -115 0
-44 -116 0
-45 -117 0
-1 -91 0
-2 -92 0
-3 -93 0
-4 -94 0
-5 -95 0
-6 -96 0
-7 -97 0
-8 -98 0
-9 -99 0
-19 -109 0
-20 -110 0
-21 -111 0
-22 -112 0
-23 -113 0
-24 -114 0
-25 -115 0
-26 -116 0
-27 -117 0
-64 -100 0
-65 -101 0
-66 -102 0
-67 -103 0
-68 -104 0
-69 -105 0
-70 -106 0
-71 -107 0
-72 -108 0
-46 -73 0
-47 -74 0
-48 -75 0
-49 -76 0
-50 -77 0
-51 -78 0
-52 -79 0
-53 -80 0
-54 -81 0
-28 -91 0
-29 -92 0
-30 -93 0
-31 -94 0
-32 -95 0
-33 -96 0
-34 -97 0
-35 -98 0
-36 -99 0
-55 -91 0
-56 -92 0
-57 -93 0
-58 -94 0
-59 -95 0
-60 -96 0
-61 -97 0
-62 -98 0
-63 -99 0
-46 -109 0
-47 -110 0
-48 -111 0
-49 -112 0
-50 -113 0
-51 -114 0
-52 -115 0
-53 -116 0
-54 -117 0
-73 -91 0
-74 -92 0
-75 -93 0
-76 -94 0
-77 -95 0
-78 -96 0
-79 -97 0
-80 -98 0
-81 -99 0
-1 -100 0
-2 -101 0
-3 -102 0
-4 -103 0
-5 -104 0
-6 -105 0
-7 -106 0
-8 -107 0
-9 -108 0
-82 -100 0
-83 -101 0
-84 -102 0
-85 -103 0
-86 -104 0
-87 -105 0
-88 -106 0
-89 -107 0
-90 -108 0
-64 -91 0
-65 -92 0
-66 -93 0
-67 -94 0
-68 -95 0
-69 -96 0
-70 -97 0
-71 -98 0
-72 -99 0
-1 -37 0
-2 -38 0
-3 -39 0
-4 -40 0
-5 -41 0
-6 -42 0
-7 -43 0
-8 -44 0
-9 -45 0
-37 -91 0
-38 -92 0
-39 -93 0
-40 -94 0
-41 -95 0
-42 -96 0
-43 -97 0
-44 -98 0
-45 -99 0
-46 -100 0
-47 -101 0
-48 -102 0
-49 -103 0
-50 -104 0
-51 -105 0
-52 -106 0
-53 -107 0
-54 -108 0
-55 -100 0
-56 -101 0
-57 -102 0
-58 -103 0
-59 -104 0
-60 -105 0
-61 -106 0
-62 -107 0
-63 -108 0
-73 -100 0
-74 -101 0
-75 -102 0
-76 -103 0
-77 -104 0
-78 -105 0
-79 -106 0
-80 -107 0
-81 -108 0
-19 -91 0
-20 -92 0
-21 -93 0
-22 -94 0
-23 -95 0
-24 -96 0
-25 -97 0
-26 -98 0
-27 -99 0
-82 -91 0
-83 -92 0
-84 -93 0
-85 -94 0
-86 -95 0
-87 -96 0
-88 -97 0
-89 -98 0
-90 -99 0
-1 -109 0
-2 -110 0
-3 -111 0
-4 -112 0
-5 -113 0
-6 -114 0
-7 -115 0
-8 -116 0
-9 -117 0
-55 -109 0
-56 -110 0
-57 -111 0
-58 -112 0
-59 -113 0
-60 -114 0
-61 -115 0
-62 -116 0
-63 -117 0
-37 -100 0
-38 -101 0
-39 -102 0
-40 -103 0
-41 -104 0
-42 -105 0
-43 -106 0
-44 -107 0
-45 -108 0
-64 -82 0
-65 -83 0
-66 -84 0
-67 -85 0
-68 -86 0
-69 -87 0
-70 -88 0
-71 -89 0
-72 -90 0
-1 -10 0
-2 -11 0
-3 -12 0
-4 -13 0
-5 -14 0
-6 -15 0
-7 -16 0
-8 -17 0
-9 -18 0
-46 -91 0
-47 -92 0
-48 -93 0
-49 -94 0
-50 -95 0
-51 -96 0
-52 -97 0
-53 -98 0
-54 -99 0
-55 -73 0
-56 -74 0
-57 -75 0
-58 -76 0
-59 -77 0
-60 -78 0
-61 -79 0
-62 -80 0
-63 -81 0
-28 -109 0
-29 -110 0
-30 -111 0
-31 -112 0
-32 -113 0
-33 -114 0
-34 -115 0
-35 -116 0
-36 -117 0
-73 -109 0
-74 -110 0
-75 -111 0
-76 -112 0
-77 -113 0
-78 -114 0
-79 -115 0
-80 -116 0
-81 -117 0
-19 -100 0
-20 -101 0
-21 -102 0
-22 -103 0
-23 -104 0
-24 -105 0
-25 -106 0
-26 -107 0
-27 -108 0
-64 -73 0
-65 -74 0
-66 -75 0
-67 -76 0
-68 -77 0
-69 -78 0
-70 -79 0
-71 -80 0
-72 -81 0
-82 -109 0
-83 -110 0
-84 -111 0
-85 -112 0
-86 -113 0
-87 -114 0
-88 -115 0
-89 -116 0
-90 -117 0
